12
10
0 53 18 106 7 48 124 47 36 46
12
0 146 52 127 88 31 108 10 148 62 11 64
16
0 112 94 59 92 37 98 100 16 86 141 44 119 14 38 140
13
0 27 69 132 1 101 70 30 122 103 66 135 35
12
0 28 50 102 51 20 128 131 32 90 126 63
16
0 105 40 21 73 72 74 22 41 133 75 23 56 139 39 67
10
0 58 2 115 145 110 4 25 55 24
12
0 89 60 83 114 8 82 123 19 107 143 49
16
0 111 76 116 77 3 79 129 78 33 81 120 9 71 136 65
17
0 147 6 96 104 99 93 5 118 84 125 45 17 113 61 85 91
15
0 138 12 26 149 109 54 130 134 150 80 68 121 29 34
13
0 13 97 95 117 137 87 144 57 42 142 43 15
